
Gurobi 9.0.2 (win64) logging started Sun Dec 27 04:57:29 2020

Changed value of parameter logfile to result\SunCable-20201227T0415\scenario_2030_m20_cab1000.log
   Prev:   Default: 
Gurobi Optimizer version 9.0.2 build v9.0.2rc0 (win64)
Optimize a model with 1243974 rows, 762167 columns and 3491691 nonzeros
Model fingerprint: 0x96580348
Coefficient statistics:
  Matrix range     [1e-07, 3e+05]
  Objective range  [1e+00, 1e+00]
  Bounds range     [0e+00, 0e+00]
  RHS range        [2e-05, 3e+08]
Warning: Model contains large matrix coefficient range
         Consider reformulating model or setting NumericFocus parameter
         to avoid numerical issues.

Concurrent LP optimizer: primal simplex, dual simplex, and barrier
Showing barrier log only...

Presolve removed 1068997 rows and 595935 columns
Presolve time: 3.02s
Presolved: 174977 rows, 280098 columns, 652320 nonzeros

Ordering time: 0.08s

Barrier statistics:
 Dense cols : 5
 AA' NZ     : 6.422e+05
 Factor NZ  : 3.150e+06 (roughly 200 MBytes of memory)
 Factor Ops : 7.040e+07 (less than 1 second per iteration)
 Threads    : 30

                  Objective                Residual
Iter       Primal          Dual         Primal    Dual     Compl     Time
   0  -2.28030285e+16 -1.07293498e+15  6.65e+06 2.60e+04  2.74e+12     4s
   1  -4.95669327e+15 -1.08564219e+15  1.44e+06 4.52e+06  7.75e+11     4s
   2  -1.50713324e+15 -1.02946478e+15  4.41e+05 1.29e+06  2.38e+11     4s
   3  -3.85770477e+14 -9.27563047e+14  1.13e+05 1.88e+05  5.55e+10     5s
   4  -9.21030688e+13 -5.83185086e+14  2.58e+04 4.50e+04  1.33e+10     5s
   5  -2.95349441e+13 -3.38124498e+14  7.68e+03 1.80e+04  4.45e+09     5s
   6  -9.86256381e+12 -1.92812278e+14  2.69e+03 4.47e+03  1.49e+09     5s
   7  -1.82347802e+12 -9.42997873e+13  5.77e+02 5.02e+02  3.34e+08     6s
   8   2.79479711e+11 -1.70815987e+13  1.13e+01 1.44e+01  3.26e+07     6s
   9   1.53498948e+11 -2.55862551e+12  2.92e-01 1.78e+00  4.86e+06     6s
  10   7.68632147e+10 -1.25405229e+12  1.05e-01 6.61e-01  2.37e+06     6s
  11   3.03922174e+10 -4.50350452e+11  2.57e-02 1.12e-08  8.50e+05     7s
  12   1.21735580e+10 -1.18240819e+11  4.07e-03 2.24e-08  2.30e+05     7s
  13   1.05025682e+10 -4.99423199e+10  2.16e-03 2.24e-08  1.06e+05     7s
  14   8.09243911e+09 -2.98893166e+10  9.38e-04 1.49e-08  6.69e+04     8s
  15   7.37341484e+09 -5.38202744e+09  4.49e-04 1.12e-08  2.24e+04     8s
  16   6.97936533e+09 -2.02036067e+09  3.10e-04 1.12e-08  1.58e+04     8s
  17   6.50226495e+09  2.40412882e+09  1.59e-04 7.45e-09  7.21e+03     8s
  18   6.26482205e+09  4.19498688e+09  9.27e-05 3.73e-09  3.64e+03     9s
  19   6.17093797e+09  4.62856334e+09  6.88e-05 3.73e-09  2.71e+03     9s
  20   6.15282422e+09  4.86651820e+09  6.41e-05 2.79e-09  2.26e+03     9s
  21   6.07163474e+09  5.28282779e+09  4.39e-05 2.79e-09  1.39e+03    10s
  22   6.04239273e+09  5.42498158e+09  3.66e-05 1.86e-09  1.09e+03    10s
  23   6.00493490e+09  5.60077275e+09  2.78e-05 1.86e-09  7.11e+02    10s
  24   5.96929964e+09  5.70111583e+09  1.84e-05 1.86e-09  4.72e+02    11s
  25   5.94653465e+09  5.77032222e+09  1.26e-05 1.86e-09  3.10e+02    11s
  26   5.93281232e+09  5.80110445e+09  9.04e-06 1.86e-09  2.32e+02    11s
  27   5.92403475e+09  5.83403754e+09  6.70e-06 1.86e-09  1.58e+02    12s
  28   5.91415763e+09  5.85885498e+09  4.11e-06 1.86e-09  9.73e+01    12s
  29   5.90933949e+09  5.88434898e+09  2.84e-06 1.86e-09  4.40e+01    12s
  30   5.90442046e+09  5.88866598e+09  1.57e-06 1.86e-09  2.77e+01    13s
  31   5.90109562e+09  5.89255494e+09  7.21e-07 1.86e-09  1.50e+01    13s
  32   5.90037583e+09  5.89408496e+09  5.38e-07 1.86e-09  1.11e+01    13s
  33   5.89893166e+09  5.89612570e+09  1.74e-07 1.86e-09  4.93e+00    14s
  34   5.89850732e+09  5.89737663e+09  8.96e-08 2.79e-09  1.99e+00    14s
  35   5.89833035e+09  5.89764170e+09  9.43e-08 1.86e-09  1.21e+00    14s
  36   5.89827684e+09  5.89797979e+09  2.14e-07 1.86e-09  5.22e-01    14s
  37   5.89822494e+09  5.89811133e+09  7.06e-07 1.86e-09  2.00e-01    15s
  38   5.89821749e+09  5.89820140e+09  4.23e-07 2.79e-09  2.83e-02    15s
  39   5.89821657e+09  5.89820988e+09  1.04e-07 2.79e-09  1.18e-02    15s
  40   5.89821630e+09  5.89821612e+09  8.75e-09 8.68e-09  3.22e-04    15s
  41   5.89821625e+09  5.89821625e+09  4.97e-08 3.03e-09  1.15e-06    16s
  42   5.89821625e+09  5.89821625e+09  5.91e-11 7.01e-09  3.11e-12    16s

Barrier solved model in 42 iterations and 16.05 seconds
Optimal objective 5.89821625e+09

Crossover log...

   18900 DPushes remaining with DInf 0.0000000e+00                16s
       0 DPushes remaining with DInf 0.0000000e+00                17s
Warning: Markowitz tolerance tightened to 0.5

   78483 PPushes remaining with PInf 0.0000000e+00                17s
    7228 PPushes remaining with PInf 0.0000000e+00                21s
       0 PPushes remaining with PInf 0.0000000e+00                22s

  Push phase complete: Pinf 0.0000000e+00, Dinf 1.0982875e-08     22s

Iteration    Objective       Primal Inf.    Dual Inf.      Time
   80384    5.8982163e+09   0.000000e+00   0.000000e+00     23s

Solved with barrier
Solved in 80384 iterations and 23.44 seconds
Optimal objective  5.898216254e+09
Warning: unscaled primal violation = 0.000895633 and residual = 0.000895633
